# A simple Psi 4 input script to compute MP2 from a RHF reference
# Requirements scipy 0.13.0+ and numpy 1.7.2+
#
# Algorithms were taken directly from Daniel Crawford's programming website:
# http://sirius.chem.vt.edu/wiki/doku.php?id=crawdad:programming
# Special thanks to Rob Parrish for initial assistance with libmints
#
# Created by: Daniel G. A. Smith
# Date: 7/29/14
# License: GPL v3.0
#

import time
import numpy as np
from scipy import linalg as SLA
np.set_printoptions(precision=5, linewidth=200, suppress=True)

# Memory for Psi4 in GB
memory 2 GB

# Memory for numpy in GB
numpy_memory = 2


molecule mol {
O
H 1 1.1
H 1 1.1 2 104
symmetry c1
}


set {
basis aug-cc-pVDZ
scf_type pk
mp2_type conv
e_convergence 1e-8
d_convergence 1e-8
}

# Check energy against psi4?
check_energy = False

print('\nStarting RHF and integral build...')
t = time.time()

# First compute RHF energy using Psi4
energy('RHF')

# Grab data from wavfunction class 
wfn = wavefunction()
ndocc = wfn.doccpi()[0]
nmo = wfn.nmo()
SCF_E = wfn.energy()
eps = np.asanyarray(wfn.epsilon_a())

# Compute size of ERI tensor in GB
ERI_Size = (nmo ** 4) * 8e-9
print('Size of the ERI/MO tensor will be %4.2f GB.' % ERI_Size)
memory_footprint = ERI_Size * 2.5
if memory_footprint > numpy_memory:
    clean()
    raise Exception("Estimated memory utilization (%4.2f GB) exceeds numpy_memory \
                    limit of %4.2f GB." % (memory_footprint, numpy_memory))

print('Building MO integrals.')
# Integral generation from Psi4's MintsHelper
t = time.time()
mints = MintsHelper()
Co = wfn.Ca_subset("AO", "OCC")
Cv = wfn.Ca_subset("AO", "VIR")
MO = np.asanyarray(mints.mo_eri(Co, Cv, Co, Cv))

Eocc = eps[:ndocc]
Evirt = eps[ndocc:]

print('Shape of MO integrals: %s' % str(MO.shape))
print('\n...finished RHF and integral build in %.3f seconds.\n' % (time.time() - t))

print('Computing MP2 energy...')
t = time.time()
e_denom = 1 / (Eocc.reshape(-1, 1, 1, 1) - Evirt.reshape(-1, 1, 1) + Eocc.reshape(-1, 1) - Evirt)

# Exactly the same as MP.dat, just written in a different way
MP2corr_OS = np.einsum('iajb,iajb,iajb->', MO, MO, e_denom)
MP2corr_SS = np.einsum('iajb,iajb,iajb->', MO - MO.swapaxes(1, 3), MO, e_denom)
print('...MP2 energy computed in %.3f seconds.\n' % (time.time() - t))

MP2corr_E = MP2corr_SS + MP2corr_OS
MP2_E = SCF_E + MP2corr_E

SCS_MP2corr_E = MP2corr_SS / 3 + MP2corr_OS * (6. / 5)
SCS_MP2_E = SCF_E + SCS_MP2corr_E

print('MP2 SS correlation energy:         %16.10f' % MP2corr_SS)
print('MP2 OS correlation energy:         %16.10f' % MP2corr_OS)

print('\nMP2 correlation energy:            %16.10f' % MP2corr_E)
print('MP2 total energy:                  %16.10f' % MP2_E)

print('\nSCS-MP2 correlation energy:        %16.10f' % MP2corr_SS)
print('SCS-MP2 total energy:              %16.10f' % SCS_MP2_E)

if check_energy:
    energy('MP2')
    compare_values(get_variable('MP2 TOTAL ENERGY'), MP2_E, 6, 'MP2 Energy')
    compare_values(get_variable('SCS-MP2 TOTAL ENERGY'), SCS_MP2_E, 6, 'SCS-MP2 Energy')


