# A simple Psi 4 input script to compute MP2 from a RHF reference
#
# Created by: Daniel G. A. Smith
# Date: 3/31/15
# License: GPL v3.0
#

import time
import numpy as np
from helper_HF import DIIS_helper
np.set_printoptions(precision=5, linewidth=200, suppress=True)

# Memory for Psi4 in GB
memory 2 GB

molecule mol {
O
H 1 1.1
H 1 1.1 2 104
symmetry c1
}

set {
basis aug-cc-pVDZ
scf_type df
cphf_tasks ['polarizability']
}

# Set defaults
# Can be direct or iterative
method = 'iterative'
numpy_memory = 2
use_diis = True

# Iterative settings
maxiter = 20
conv = 1.e-6

# Compute the reference wavefunction and CPHF using Psi 
energy('SCF')
energy('CPHF')
wfn = wavefunction()

C = wfn.Ca()
Co = wfn.Ca_subset("AO", "OCC")
Cv = wfn.Ca_subset("AO", "VIR")
epsilon = np.asarray(wfn.epsilon_a())

nbf = wfn.nmo()
nocc = wfn.nalpha()
nvir = nbf - nocc

# Integral generation from Psi4's MintsHelper
t = time.time()
mints = MintsHelper()
S = np.asarray(mints.ao_overlap())

# Get nbf and ndocc for closed shell molecules
print('\nNumber of occupied orbitals: %d' % nocc)
print('Number of basis functions: %d' % nbf)

# Grab perturbation tensors in MO basis
nCo = np.asarray(Co)
nCv = np.asarray(Cv)
tmp_dipoles = mints.so_dipole()
dipoles_xyz = []
for num in range(3):
    Fso = np.asarray(tmp_dipoles[num])
    Fia = (nCo.T).dot(Fso).dot(nCv)
    Fia *= -2
    dipoles_xyz.append(Fia)

if method == 'direct':
    # Run a quick check to make sure everything will fit into memory
    I_Size = (nbf ** 4) * 8.e-9
    oNNN_Size = (nocc * nbf ** 3) * 8.e-9
    ovov_Size = (nocc * nocc * nvir * nvir) * 8.e-9
    print("\nTensor sizes:")
    print("ERI tensor           %4.2f GB." % I_Size)
    print("oNNN MO tensor       %4.2f GB." % oNNN_Size)
    print("ovov Hessian tensor  %4.2f GB." % ovov_Size)
    
    # Estimate memory usage
    memory_footprint = I_Size * 1.5
    if I_Size > numpy_memory:
        clean()
        raise Exception("Estimated memory utilization (%4.2f GB) exceeds numpy_memory \
                        limit of %4.2f GB." % (memory_footprint, numpy_memory))

    # Compute electronic hessian
    print('\nForming hessian...')
    t = time.time()
    docc = np.diag(np.ones(nocc))
    dvir = np.diag(np.ones(nvir))
    eps_diag = epsilon[nocc:].reshape(-1, 1) - epsilon[:nocc]
    
    # Form oNNN MO tensor, oN^4 cost
    MO = np.asarray(mints.mo_eri(Co, C, C, C))
    
    H = np.einsum('ai,ij,ab->iajb', eps_diag, docc, dvir)
    H += 4 * MO[:, nocc:, :nocc, nocc:]
    H -= MO[:, nocc:, :nocc, nocc:].swapaxes(0, 2)
    H -= MO[:, :nocc, nocc:, nocc:].swapaxes(1, 2)
    
    print('...formed hessian in %.3f seconds.' % (time.time() - t))
    
    # Invert hessian (o^3 v^3)
    print('\nInverting hessian...')
    t = time.time()
    Hinv = np.linalg.inv(H.reshape(nocc * nvir, -1)).reshape(nocc, nvir, nocc, nvir)
    print('...inverted hessian in %.3f seconds.' % (time.time() - t))
    
    # Compute 3x3 polarizability tensor
    polar = np.empty((3, 3))
    for numx in range(3):
        x = np.einsum('iajb,ia->jb', Hinv, dipoles_xyz[numx])
        for numf in range(3):
            polar[numx, numf] = -1 * np.einsum('ia,ia->', x, dipoles_xyz[numf])

elif method == 'iterative':

    # Init JK object
    jk = JK.build_JK()
    jk.initialize()

    # Add blank matrices to the jk object and numpy hooks to C_right
    npC_right = []
    for xyz in range(3):
        jk.C_left().append(Co)
        mC = Matrix(nbf, nocc)
        npC_right.append(np.asarray(mC))
        jk.C_right().append(mC)

    # Build initial guess, previous vectors, diis object, and C_left updates
    x = []
    x_old = []
    diis = []
    ia_denom = - epsilon[:nocc].reshape(-1, 1) + epsilon[nocc:]
    for xyz in range(3): 
        x.append(dipoles_xyz[xyz] / ia_denom)
        x_old.append(np.zeros(ia_denom.shape))
        diis.append(DIIS_helper())

    # Convert Co and Cv to numpy arrays
    mCo = Co
    Co = np.asarray(Co)
    Cv = np.asarray(Cv)

    print('\nStarting CPHF iterations:')
    t = time.time()
    for CPHF_ITER in range(1, maxiter + 1):

        # Update jk's C_right
        for xyz in range(3):
            npC_right[xyz][:] = Cv.dot(x[xyz].T)
        
        # Compute JK objects
        jk.compute()

        # Update amplitudes
        for xyz in range(3):
            # Build J and K objects
            J = np.asarray(jk.J()[xyz])
            K = np.asarray(jk.K()[xyz])

            # Bulid new guess
            X = dipoles_xyz[xyz].copy()
            X -= (Co.T).dot(4 * J - K.T - K).dot(Cv)
            X /= ia_denom
            
            # DIIS for good measure
            if use_diis:
                diis[xyz].add(X, X - x_old[xyz])
                X = diis[xyz].extrapolate() 
            x[xyz] = X.copy()

        # Check for convergence
        rms = []
        for xyz in range(3):
            rms.append(np.max((x[xyz] - x_old[xyz]) ** 2))
            x_old[xyz] = x[xyz]

        avg_RMS = sum(rms) / 3
        max_RMS = max(rms)

        if max_RMS < conv:
            print('CPHF converged in %d iterations and %.2f seconds.' % (CPHF_ITER, time.time() - t))
            break

        print('CPHF Iteration %3d: Average RMS = %3.8f  Maximum RMS = %3.8f' %
                (CPHF_ITER, avg_RMS, max_RMS))

    
    # Compute 3x3 polarizability tensor
    polar = np.empty((3, 3))
    for numx in range(3):
        for numf in range(3):
            polar[numx, numf] = -1 * np.einsum('ia,ia->', x[numx], dipoles_xyz[numf])


else:
    raise Exception("Method %s is not recognized" % method)


print('\nCPHF Dipole Polarizability:')
print(np.around(polar, 5))

