# A simple Psi 4 input script to compute MP2 from a RHF reference
# Requirements scipy 0.13.0+ and numpy 1.7.2+
#
# Algorithms were taken directly from Daniel Crawford's programming website:
# http://sirius.chem.vt.edu/wiki/doku.php?id=crawdad:programming
# Special thanks to Rob Parrish for initial assistance with libmints
#
# Created by: Daniel G. A. Smith
# Date: 7/29/14
# License: GPL v3.0
#

import time
import numpy as np
from scipy import linalg as SLA
np.set_printoptions(precision=5, linewidth=200, suppress=True)

# Memory for Psi4 in GB
memory 2 GB

# Memory for numpy in GB
numpy_memory = 2

molecule mol {
O
H 1 1.1
H 1 1.1 2 104
symmetry c1
}

set {
basis cc-pVDZ
scf_type pk
guess core
mp2_type conv
e_convergence 1e-8
}

# Set defaults
maxiter = 40
E_conv = 1.0E-6
D_conv = 1.0E-3

# Integral generation from Psi4's MintsHelper
t = time.time()
mints = MintsHelper()
S = mints.ao_overlap()

# Run a quick check to make sure everything will fit into memory
I_Size = (np.array(S).shape[0]**4)*8/1.0E9
print "\nSize of the ERI tensor will be %4.2f GB." % I_Size

memory_footprint = I_Size*1.5

if I_Size > numpy_memory:
    clean()
    raise Exception("Estimated memory utilization (%4.2f GB) exceeds numpy_memory limit of %4.2f GB." % (memory_footprint, numpy_memory))

V = mints.ao_potential()
T = mints.ao_kinetic()
I = mints.ao_eri()

print '\nTotal time taken for integrals: %.3f seconds.' % (time.time()-t)

# Get nbf and ndocc for closed shell molecules
t = time.time()
Z = 0
for A in range(mol.natom()):
    Z += mol.Z(A)
ndocc = int(Z / 2)
nbf = S.rows(0)

print '\nNumber of occupied orbitals: %d' % ndocc
print 'Number of basis functions: %d' % nbf

# Build H_core
H = np.matrix(T) + np.matrix(V)

# Build I and reshape to rank 4 tensor
I = np.array(I).reshape(nbf, nbf, nbf, nbf)

# Orthogonalizer A = S^(-1/2)
A = np.matrix(SLA.sqrtm(S)).I.real

# Calculate initial core guess
Hp = A*H*A
e, C2 = SLA.eigh(Hp)
C = A*C2 
Cocc = C[:, :ndocc]
D = Cocc*Cocc.T

print '\nTotal time taken for setup: %.3f seconds' % (time.time()-t)

print('\nStart RHF iterations:\n')
t = time.time()
E = 0.0
Enuc = mol.nuclear_repulsion_energy()
Eold = 0.0
Dold = np.zeros_like(D)

for SCF_ITER in range(1, maxiter + 1):

    # Build fock matrix
    J = np.einsum('pqrs,rs', I, D) 
    K = np.einsum('pqrs,qs', I, D)
    F = H + J*2 - K

    # SCF energy and update
    SCF_E = np.einsum('ij,ij->', F+H, D) + Enuc
    dRMS = np.sum(np.power(D - Dold, 2))**0.5

    print 'RHF Iteration %3d: Energy = %4.16f   dE = % 1.5E   dRMS = %1.5E' % (SCF_ITER, SCF_E, (SCF_E - Eold), dRMS)
    if (abs(SCF_E - Eold) < E_conv) and (dRMS < D_conv):
        break

    Eold = SCF_E
    Dold = D

    # Diagonalize Fock matrix
    Fp = A*F*A
    e, C2 = SLA.eigh(Fp)
    C = A*C2
    Cocc = C[:, :ndocc]
    D = Cocc*Cocc.T

    if SCF_ITER==maxiter:
        clean()
        raise Exception("Maximum number of SCF cycles exceeded without convergence.")

print 'Total time taken for SCF iterations: %.3f seconds \n' % (time.time()-t)

print 'Final SCF energy: %.8f hartree' % SCF_E
SCF_E_psi = energy('scf')
compare_values(SCF_E_psi, SCF_E, E_conv, 'SCF Energy')



