memory 2 GB

molecule {
1 2
C -0.7804874710 -0.0807351587 0.0000246543
C 0.7804874710 0.0807351587 0.0000246543
H -1.2199700159 -0.4600841188 -0.9286632585
H -0.7540672131 1.0704462868 -0.0004807647
H -1.2198563041 -0.4597500768 0.9288504684
H 1.2199700159 0.4600841188 -0.9286632585
H 0.7540672131 -1.0704462868 -0.0004807647
H 1.2198563041 0.4597500768 0.9288504684
}

set reference uhf
set scf_type pk
set mp2_type conv
set e_convergence 10
set d_convergence 10
set optking {
    g_convergence gau_verytight
}
optimize('mp2/cc-pvdz')
